src/fuel/fuel_planner/utils/lkh_tsp_solver/resource/single.tsp
NAME : single
TYPE : ATSP
DIMENSION : 5
EDGE_WEIGHT_TYPE : EXPLICIT
EDGE_WEIGHT_FORMAT : FULL_MATRIX
EDGE_WEIGHT_SECTION
0 200 200 100 200 
0 0 100 200 100 
0 100 0 200 200 
0 200 200 0 100 
0 100 200 100 0 
