src/fuel/fuel_planner/utils/lkh_tsp_solver/resource/single.txt
NAME : single.200.tour
COMMENT : Length = 200
COMMENT : Found by LKH [Keld Helsgaun] Mon Oct 23 15:18:21 2023
TYPE : TOUR
DIMENSION : 3
TOUR_SECTION
1
3
2
-1
EOF
